set S :=
366    82     573    670    888    712    137    414    1205   997    20
989    988    1018   514    1061   792    1027   16     1169   1078
575    290    179    370    606    267    986    195    1210   823
154    2      403    509    615    542    664    446    3      127
485    851    983    654    860    949    638    484    574    523;


param lambda:=597;